Example_IV/other_models/219/model_219_reordered_Log_80_cores.log

Gurobi 9.0.2 (linux64) logging started Mon Sep 14 08:46:00 2020

Changed value of parameter LogFile to model_219_reordered_Log_80_cores.log
   Prev:   Default: 
Changed value of parameter Threads to 80
   Prev: 0  Min: 0  Max: 1024  Default: 0
Gurobi Optimizer version 9.0.2 build v9.0.2rc0 (linux64)
Optimize a model with 10828 rows, 38880 columns and 175166 nonzeros
Model fingerprint: 0xb184c5dd
Variable types: 0 continuous, 38880 integer (38880 binary)
Coefficient statistics:
  Matrix range     [1e+00, 6e+01]
  Objective range  [1e+00, 1e+00]
  Bounds range     [1e+00, 1e+00]
  RHS range        [1e+00, 3e+02]
Presolve removed 891 rows and 3560 columns
Presolve time: 0.32s
Presolved: 9937 rows, 35320 columns, 157873 nonzeros
Variable types: 0 continuous, 35320 integer (35320 binary)

Root relaxation: objective 1.000000e+00, 2646 iterations, 0.09 seconds

    Nodes    |    Current Node    |     Objective Bounds      |     Work
 Expl Unexpl |  Obj  Depth IntInf | Incumbent    BestBd   Gap | It/Node Time

     0     0    1.00000    0  268          -    1.00000      -     -    1s
     0     0    1.00000    0  622          -    1.00000      -     -    2s
     0     0    1.00000    0  636          -    1.00000      -     -    2s
     0     0    1.00000    0  206          -    1.00000      -     -    4s
     0     0    1.00000    0  230          -    1.00000      -     -    4s
     0     0    1.00000    0  226          -    1.00000      -     -    5s
     0     0    1.00000    0  257          -    1.00000      -     -    5s
     0     0    1.00000    0  137          -    1.00000      -     -    6s
     0     0    1.00000    0  221          -    1.00000      -     -    6s
     0     0    1.00000    0  138          -    1.00000      -     -    7s
     0     0    1.00000    0  227          -    1.00000      -     -    8s
     0     0    1.00000    0  151          -    1.00000      -     -    8s
     0     0    1.00000    0  151          -    1.00000      -     -    9s
     0     2    1.00000    0  140          -    1.00000      -     -   11s
    44    16    1.00000   20  317          -    1.00000      -  2596   16s
   230    10    1.00000   30  362          -    1.00000      -  2594   20s
   457     6 infeasible   46               -    1.00000      -  2018   25s
H  663    99                       1.0000000    1.00000  0.00%  1414   27s

Cutting planes:
  Gomory: 10
  Cover: 2855
  Clique: 8
  MIR: 256
  StrongCG: 48
  Inf proof: 14
  Zero half: 16
  RLT: 48

Explored 711 nodes (1140007 simplex iterations) in 27.46 seconds
Thread count was 80 (of 80 available processors)

Solution count 1: 1 

Optimal solution found (tolerance 1.00e-04)
Best objective 1.000000000000e+00, best bound 1.000000000000e+00, gap 0.0000%
